(set-logic QF_S)
(declare-fun var_0xINPUT_251879 () String)
(assert (and (= (len var_0xINPUT_251879) 0) (= (len var_0xINPUT_251879) 0) (not (= var_0xINPUT_251879 "Example:")) (not (= var_0xINPUT_251879 "3s71lxYG6e"))))
(check-sat var_0xINPUT_251879)